p tw 78 168
0 1
0 2
0 3
0 4
0 6
0 49
0 50
1 2
1 3
1 4
1 7
2 3
2 4
2 43
3 4
3 19
3 21
4 42
4 52
4 57
4 77
5 6
5 7
5 8
5 41
6 7
6 49
6 50
8 9
8 41
9 61
10 11
10 16
11 17
11 60
12 13
12 14
12 15
12 62
12 63
12 64
12 65
13 14
13 15
13 33
14 15
14 36
15 53
15 54
15 55
16 17
16 18
17 18
17 60
18 33
18 34
18 35
19 20
19 21
20 28
20 29
21 77
22 23
22 72
23 29
23 66
23 73
24 25
24 27
24 47
24 68
24 69
25 26
26 27
27 47
27 68
27 69
28 29
28 37
28 38
28 39
28 40
29 66
29 73
30 31
30 32
30 35
30 45
30 47
30 48
31 32
31 67
32 69
33 34
33 35
34 35
34 59
34 60
35 45
35 47
35 48
36 55
37 38
37 39
37 40
37 66
38 39
38 40
38 71
38 72
38 73
39 40
39 56
40 70
40 76
41 50
41 61
42 43
42 44
42 52
42 57
42 77
43 44
44 63
44 75
45 46
45 47
45 48
46 68
46 70
47 48
47 68
47 69
48 59
49 50
49 71
50 61
51 52
51 58
52 57
52 77
53 54
53 55
53 64
53 67
54 55
54 65
56 76
57 58
57 77
59 60
62 63
62 64
62 65
62 74
63 64
63 65
63 75
64 65
64 67
66 73
68 69
68 70
70 76
71 72
71 73
72 73
74 75
